82 81 84 81 85 81 81 82 82 85 85 81 85 82 84 85 85 81 82 82 
84 84 82 84 84 84 82 83 84 82 83 84 83 84 82 82 82 84 82 84 
83 81 82 83 83 83 85 83 84 83 85 82 81 81 85 85 84 81 84 81 
83 84 81 81 81 83 81 87 86 86 80 82 87 87 83 86 85 85 85 86 
82 83 81 85 81 85 82 86 80 85 80 80 82 84 83 84 84 86 82 81 
85 84 84 81 83 85 82 81 82 82 85 84 84 84 81 82 82 83 82 85 
85 83 83 85 85 84 82 87 83 85 87 85 82 87 81 81 82 82 85 87 
83 84 82 82 82 83 83 83 82 83 83 83 83 84 83 84 82 83 83 83 
81 83 81 82 83 81 83 82 81 84 83 84 84 84 82 82 82 81 82 84 
81 80 79 87 85 82 82 82 80 83 80 79 81 79 80 79 79 80 81 87 
85 85 83 81 85 81 83 84 85 82 83 82 85 84 83 82 81 81 85 81 
81 83 82 82 81 81 83 85 84 82 83 85 84 83 85 83 82 81 85 83 
81 85 81 80 85 84 82 84 82 82 82 85 82 86 83 86 84 81 86 84 
81 86 82 85 82 83 83 81 86 83 83 85 86 82 80 82 84 85 85 83 
84 78 84 80 84 79 84 81 81 85 83 85 88 86 87 83 79 83 87 80 
82 83 83 82 85 83 83 81 83 81 85 85 82 85 85 81 83 83 85 85 
82 85 86 82 83 86 83 86 85 83 85 84 84 80 81 82 80 80 83 80 
84 82 83 83 82 82 82 83 83 82 84 84 84 82 84 84 84 82 82 82 
85 82 81 84 83 85 83 81 81 82 83 84 83 83 81 84 81 85 82 85 
86 81 84 85 81 79 80 87 80 83 82 83 88 86 79 84 85 79 83 81 
83 82 82 83 84 84 84 82 84 82 84 83 83 82 84 83 82 82 83 83 
80 84 81 86 85 86 84 80 84 85 84 84 84 80 81 86 85 86 84 85 
83 87 83 80 82 83 81 88 84 80 78 79 84 79 81 80 85 84 87 82 
84 82 85 85 83 85 86 83 83 81 84 85 85 83 83 85 83 83 84 84 
87 80 86 84 82 80 84 87 82 83 82 81 80 79 84 85 80 81 83 87 
85 79 82 81 82 79 86 80 81 82 85 85 82 87 86 79 87 84 84 80 
81 82 85 85 81 82 85 81 82 83 82 85 81 81 84 84 83 85 83 85 
85 82 80 82 85 86 80 82 84 80 80 85 84 82 81 85 80 81 85 84 
83 85 83 82 85 85 85 83 81 84 84 83 82 82 85 85 83 85 83 85 
82 82 85 81 81 84 82 82 84 82 82 80 83 86 81 82 83 81 84 84 
82 83 84 84 84 82 83 82 82 82 84 84 83 82 83 82 82 84 82 84 
85 83 86 86 78 79 79 86 79 86 88 81 87 80 79 88 78 78 88 86 
82 83 84 83 82 82 82 82 84 83 83 84 82 83 84 84 84 83 84 84 
84 84 82 82 82 84 82 83 84 83 83 84 83 82 83 83 84 83 84 84 
82 86 84 84 85 82 86 86 82 84 84 80 86 83 85 86 80 83 80 82 
80 87 86 83 87 81 83 81 87 83 87 85 83 86 82 86 81 82 85 87 
82 84 82 83 82 83 84 82 84 84 82 82 82 83 82 83 82 82 83 84 
82 80 80 81 80 81 82 81 85 81 83 84 81 82 82 83 83 81 84 83 
84 83 81 85 86 85 85 80 83 82 83 80 82 82 83 83 84 85 87 81 
81 85 81 82 84 84 81 83 85 85 83 82 83 82 82 83 85 83 84 82 
82 83 84 82 82 83 83 82 84 82 82 83 84 84 83 84 84 83 82 82 
82 79 87 82 80 79 83 84 87 79 85 80 87 85 81 85 81 81 83 81 
86 85 78 86 84 78 83 87 82 86 87 84 79 88 80 79 78 82 88 83 
82 85 82 81 84 82 84 84 83 84 82 85 85 84 83 85 84 83 82 85 
85 83 81 81 84 81 84 81 82 83 83 86 83 84 83 82 85 80 84 81 
81 83 82 82 86 85 79 80 86 86 80 79 81 86 87 86 83 79 82 82 
84 81 80 85 84 81 84 86 84 84 82 86 85 84 86 85 80 80 80 86 
84 83 85 85 85 86 84 85 85 80 81 85 86 83 86 80 86 80 80 83 
80 84 79 86 83 84 82 82 86 85 87 80 79 80 87 84 80 83 86 80 
82 82 82 84 82 84 83 83 82 82 83 83 82 83 82 83 83 84 83 84 
80 83 86 88 83 83 84 86 85 83 87 87 88 88 86 80 83 78 86 88 
82 80 81 79 84 86 83 81 87 81 86 79 87 79 82 84 85 83 86 87 
83 80 80 79 80 79 82 87 81 80 85 87 85 86 86 85 79 84 83 81 
85 87 79 82 81 82 81 84 85 87 80 86 81 82 85 84 81 79 83 79 
87 82 84 78 79 87 83 88 85 82 79 80 88 85 79 85 81 85 88 84 
84 82 81 84 82 85 82 85 83 84 85 84 83 84 83 82 85 85 83 83 
88 82 88 78 86 84 84 83 79 83 84 86 85 83 88 85 87 86 82 80 
83 81 86 80 80 87 84 83 82 87 87 84 85 84 83 86 84 80 85 87 
85 84 83 84 85 84 85 82 83 84 82 82 83 82 84 82 82 83 83 83 
81 79 88 80 85 85 84 83 86 84 85 87 88 85 81 85 83 79 78 86 
84 82 82 83 82 82 84 83 82 82 83 83 82 83 84 83 82 83 83 84 
85 83 83 81 83 81 85 84 85 84 84 83 83 83 85 81 81 83 85 83 
82 84 82 85 81 84 81 83 83 83 81 83 85 82 83 84 84 82 85 85 
81 83 85 84 86 84 85 81 85 84 80 80 81 84 80 81 85 86 82 81 
84 84 82 83 83 82 82 82 82 84 83 84 83 83 84 82 83 82 84 84 
84 84 82 85 84 82 81 80 82 83 86 80 81 86 80 83 80 81 86 81 
81 84 85 84 80 81 83 83 82 83 86 83 85 80 86 84 81 82 83 80 
87 85 83 78 83 78 79 80 81 86 85 83 80 78 82 81 88 81 88 88 
85 85 80 86 81 79 80 84 79 84 85 85 83 79 80 83 87 82 82 79 
84 85 80 86 83 80 85 85 83 86 85 81 84 80 81 83 84 80 83 80 
82 83 83 86 83 82 80 82 85 85 85 80 80 82 81 80 85 80 84 82 
83 84 83 82 87 85 86 79 79 81 85 87 86 80 84 86 81 87 87 83 
84 86 82 80 84 80 80 81 86 85 85 84 84 83 86 81 86 80 84 83 
81 79 82 79 84 84 84 85 82 87 82 80 84 82 81 82 87 86 81 85 
83 84 83 83 84 82 84 83 83 84 82 84 82 84 82 83 84 83 83 83 
83 81 86 85 82 83 85 86 81 86 84 81 85 81 85 86 81 85 85 82 
85 86 86 80 82 81 83 80 86 81 84 85 83 81 84 83 86 80 86 80 
86 84 84 81 81 79 80 82 80 79 81 84 83 85 85 79 83 86 86 80 
82 83 83 82 82 84 82 84 82 83 84 82 84 82 83 84 83 82 83 84 
80 84 79 78 86 84 84 86 78 81 80 79 80 86 83 88 80 82 81 80 
84 80 80 82 87 87 80 78 88 78 81 84 86 78 86 78 88 83 78 81 
83 83 85 81 81 84 81 85 82 82 81 82 86 87 81 85 84 81 83 85 
84 83 84 84 83 82 82 82 82 83 82 83 82 82 83 84 82 82 83 82 
81 84 82 81 86 79 87 82 83 84 84 87 84 83 85 80 80 80 81 82 
85 84 86 81 85 87 83 81 81 80 84 85 87 81 84 82 81 86 87 85 
83 81 87 79 81 85 81 83 83 83 80 82 81 83 81 81 86 87 79 82 
85 80 80 84 85 81 85 84 79 84 84 79 80 87 81 80 81 79 83 86 
78 86 80 82 83 78 79 82 78 84 79 81 87 84 87 81 80 78 87 80 
82 82 82 84 83 82 82 82 83 83 83 82 84 83 82 84 84 82 84 84 
83 84 82 82 84 84 82 82 83 84 84 82 83 82 82 82 82 84 83 83 
82 86 85 83 81 84 81 80 84 86 82 84 82 82 82 80 81 81 86 81 
86 83 80 83 81 85 84 86 82 84 85 86 82 80 80 80 82 86 81 86 
82 80 87 84 81 85 87 82 87 83 85 80 81 83 82 82 80 81 83 83 
83 78 85 88 83 85 87 82 87 85 88 82 81 83 83 88 79 83 87 86 
84 83 82 84 82 83 82 82 82 83 82 82 82 84 82 84 83 84 84 83 
85 82 86 80 81 80 80 81 85 85 80 82 86 86 86 85 82 82 83 81 
82 83 84 85 86 82 83 85 82 86 80 82 80 85 81 86 80 82 80 84 
81 80 88 78 83 83 84 88 78 83 86 81 79 79 86 81 88 80 81 78 
83 84 82 83 84 85 85 85 84 83 83 81 81 84 81 81 85 84 85 85 
84 84 83 83 82 85 81 81 84 85 81 83 82 81 84 84 84 81 85 83 
81 80 81 81 86 81 87 84 79 82 81 82 79 82 84 81 84 85 88 86 
86 80 83 86 80 83 85 80 88 79 79 87 78 88 86 85 88 86 83 87 
79 87 87 81 79 84 86 78 88 86 88 79 88 84 86 80 80 85 79 85 
83 83 83 83 82 82 83 82 82 83 82 84 84 83 82 83 82 83 83 84 
83 80 84 82 83 81 81 83 86 84 82 86 86 84 84 80 85 85 81 83 
81 81 82 81 82 82 81 82 85 82 84 85 82 81 83 84 83 83 84 84 
87 83 80 78 85 78 88 79 87 83 86 82 86 81 85 79 84 82 88 81 
85 82 84 86 88 80 78 83 82 82 78 83 87 86 81 79 87 86 80 78 
81 84 81 83 82 84 82 83 82 84 81 84 81 83 82 82 85 85 85 81 
84 82 84 84 83 83 81 84 82 81 85 84 81 81 81 82 84 83 84 83 
83 83 82 83 83 84 84 83 84 84 83 82 82 82 84 84 82 83 83 82 
80 82 80 84 86 81 80 80 83 82 82 80 81 81 84 85 83 86 86 85 
81 81 83 84 83 82 83 84 86 85 81 81 85 81 82 85 83 83 81 81 
84 83 81 84 84 84 85 81 82 81 82 83 84 81 82 83 82 84 81 81 
82 83 84 83 84 84 84 83 84 83 83 83 83 82 82 84 83 84 83 83 
84 84 82 83 83 82 81 81 82 81 82 84 83 82 82 82 85 83 83 82 
87 80 85 81 80 87 85 84 86 87 79 84 83 87 81 87 86 79 87 82 
86 85 80 85 80 82 81 84 85 84 81 86 85 83 82 80 81 80 84 84 
85 84 84 81 83 84 81 85 84 85 84 82 81 84 85 85 81 82 82 85 
81 83 80 79 86 81 86 87 84 84 88 80 86 83 86 81 81 86 83 87 
82 86 83 85 83 83 83 82 83 85 80 80 80 86 82 80 84 84 81 83 
83 84 82 82 84 82 82 82 83 84 84 82 83 82 84 84 84 83 83 83 
80 83 85 86 80 80 83 83 85 81 86 84 81 82 80 83 81 85 81 85 
84 84 83 83 83 84 85 83 83 84 83 83 82 82 81 83 81 84 81 82 
79 84 78 78 80 83 80 78 79 84 84 78 88 81 88 83 82 84 86 81 
84 82 82 82 84 83 82 84 83 84 83 84 82 83 84 84 82 84 83 83 
85 78 83 87 78 83 84 88 78 85 86 88 78 83 81 86 83 85 84 88 
87 79 87 80 81 81 85 83 84 81 84 83 80 81 83 81 87 79 83 84 
85 83 86 79 85 80 84 86 82 81 82 82 83 87 85 83 79 80 79 78 
79 84 79 80 79 86 86 83 78 79 87 82 86 85 78 83 85 84 88 88 
84 78 86 84 87 80 86 88 82 79 82 78 79 87 81 81 84 79 84 80 
84 82 83 84 83 83 84 83 84 84 84 82 82 83 84 84 84 82 83 83 
80 80 83 82 84 83 82 80 81 86 80 82 82 86 82 86 85 86 84 82 
85 84 78 85 88 79 82 80 80 87 84 84 87 80 78 80 86 82 78 78 
84 83 82 84 82 82 82 82 83 83 82 83 82 84 82 83 84 83 84 83 
80 83 85 85 80 80 85 83 85 80 79 83 86 86 87 86 80 84 79 82 
81 81 84 85 81 83 85 81 82 81 83 84 84 85 81 81 85 81 83 83 
84 82 81 83 85 87 86 81 84 87 81 84 86 82 85 85 87 84 81 79 
83 82 82 83 84 83 82 83 83 83 82 84 84 82 84 82 83 84 83 84 
84 83 84 84 83 82 83 84 84 83 84 84 84 84 84 84 83 82 82 83 
84 84 83 82 84 84 82 83 83 82 84 83 82 84 82 82 82 84 82 82 
81 82 84 85 81 82 81 84 82 82 85 84 85 81 85 81 84 83 81 85 
83 82 82 83 84 82 84 83 84 82 82 83 82 83 82 82 84 82 84 83 
82 85 83 85 81 83 80 81 83 82 86 82 86 84 80 82 84 81 86 83 
81 86 87 87 79 88 81 87 83 88 83 81 82 88 86 81 78 88 87 85 
85 85 85 83 85 83 82 81 83 81 83 84 83 82 81 84 84 82 84 83 
84 82 84 78 80 87 80 83 85 79 78 83 85 80 87 86 83 85 88 78 
84 87 84 82 80 80 81 82 84 83 85 84 87 80 83 86 81 81 84 85 
88 87 83 81 82 78 82 81 85 80 83 88 81 83 81 84 82 85 84 85 
81 80 86 83 80 83 86 85 84 83 80 86 84 84 80 80 86 84 84 80 
82 83 81 84 85 85 81 84 85 84 86 80 83 85 83 85 86 84 82 84 
81 85 82 81 82 85 84 81 82 81 82 83 84 84 83 85 83 82 84 85 
86 79 81 84 84 79 84 83 78 85 83 78 88 87 88 86 86 80 85 86 
82 84 80 86 84 84 82 80 87 81 87 85 79 78 80 80 81 78 85 78 
79 79 86 83 88 87 83 81 81 86 78 78 78 80 85 83 80 87 82 78 
78 88 81 79 79 82 83 83 88 85 84 79 87 85 81 82 88 88 87 80 
86 83 86 81 80 81 83 83 82 84 82 84 85 86 83 85 82 81 85 85 
84 84 82 83 84 82 82 84 84 84 83 82 83 83 84 82 82 83 82 83 
84 87 85 87 85 88 87 85 81 80 81 78 88 82 86 82 79 88 85 84 
83 84 82 79 88 87 87 80 84 85 79 82 84 78 86 81 86 86 86 88 
82 85 80 79 85 81 81 87 79 83 81 81 81 87 85 87 86 81 82 79 
81 85 82 81 85 82 84 85 83 83 81 81 83 83 83 83 84 84 84 83 
86 82 80 86 83 82 83 82 80 80 84 83 83 82 81 81 86 82 83 80 
79 79 78 86 87 82 80 86 86 87 81 80 81 79 83 81 88 87 80 79 
81 84 84 85 81 82 82 83 83 82 82 82 82 85 81 81 81 84 81 81 
83 82 81 81 83 82 84 83 81 81 81 81 81 84 81 82 84 85 83 83 
85 84 85 84 83 81 85 81 83 82 81 82 83 84 83 84 82 83 85 83 
84 81 85 82 84 84 84 84 84 81 85 82 83 82 85 82 81 83 83 85 
85 85 85 84 81 81 81 81 84 83 85 85 81 85 83 81 83 81 84 84 
85 83 82 85 83 85 81 85 84 81 83 83 83 85 84 81 83 82 84 84 
85 86 81 83 87 82 86 83 79 87 81 86 78 80 79 81 83 85 83 79 
80 79 87 87 81 87 83 81 87 80 81 85 84 83 83 84 81 79 86 87 
84 83 82 83 84 84 83 82 82 83 84 83 83 82 84 82 82 83 84 84 
82 83 83 83 82 83 83 84 84 83 84 83 83 84 83 84 83 83 84 84 
86 82 83 86 82 83 86 83 81 82 82 83 82 80 86 80 84 84 83 82 
84 83 83 84 83 82 82 83 83 82 84 82 84 84 82 82 83 84 83 84 
81 87 86 81 87 82 82 85 81 88 80 87 81 79 80 78 78 88 87 87 
80 85 82 81 87 80 86 82 84 79 80 87 87 85 81 86 82 80 86 84 
83 85 81 82 81 82 85 82 82 81 85 82 81 80 80 80 84 81 84 80 
80 87 80 80 79 80 85 83 83 87 85 85 83 83 83 86 86 81 87 84 
79 79 83 82 86 79 85 83 79 85 80 85 81 87 86 86 82 79 86 87 
81 84 86 85 86 80 81 85 86 83 86 82 80 80 84 84 85 82 83 80 
82 81 83 84 83 84 83 83 81 81 82 83 82 85 83 81 82 82 85 85 
83 82 82 80 81 80 85 85 82 80 84 82 82 83 81 86 84 81 83 81 
81 82 81 84 81 85 83 84 83 83 84 83 83 85 83 85 84 82 81 81 
83 83 81 82 81 81 82 83 80 82 86 84 86 84 84 86 82 84 83 81 
81 88 84 78 82 83 86 83 86 79 86 87 88 79 78 88 88 88 88 85 
87 83 87 88 88 80 87 84 79 86 82 83 83 79 83 84 88 86 82 84 
84 84 84 82 81 82 82 85 86 85 81 82 83 82 86 85 86 83 85 80 
85 83 82 85 84 81 85 83 82 85 85 82 85 85 84 84 82 83 85 82 
79 80 86 78 80 80 79 83 81 83 78 86 85 80 78 84 85 80 84 85 
81 79 78 87 81 80 79 78 83 88 79 83 85 79 87 80 80 80 87 78 
80 79 81 80 82 85 81 84 79 83 79 79 82 82 86 79 85 80 81 86 
79 82 85 81 85 79 79 83 78 81 86 83 88 84 81 79 82 86 82 87 
86 79 82 78 83 84 87 86 88 78 84 84 78 87 81 88 87 86 81 80 
83 84 84 83 83 84 82 82 83 82 82 82 82 82 82 84 84 82 82 82 
88 78 82 86 85 82 87 88 80 81 88 82 84 88 80 79 86 82 78 86 
80 79 82 81 81 81 83 84 86 83 86 84 85 81 87 86 86 80 81 83 
84 83 82 82 84 83 83 84 83 82 83 83 83 83 83 84 82 84 82 82 
84 85 81 83 85 83 81 81 85 81 85 83 85 85 82 81 85 82 83 85 